\ LP format - for model browsing. Use MPS format to capture full model detail.
Minimize
  C5 + C6 + C7 + C8 + C9 + 0 X1_1 + 0 X2_2 + 0 X3_3 + 0 X4_4 + 0 X5_5
   + 0 X6_6 + 0 X7_7 + 0 X8_8 + 0 X9_9
Subject To
 Exclusivity_1_2: X1_2 + X2_1 = 1
 Exclusivity_1_3: X1_3 + X3_1 = 1
 Exclusivity_1_4: X1_4 + X4_1 = 1
 Exclusivity_1_5: X1_5 + X5_1 = 1
 Exclusivity_1_6: X1_6 + X6_1 = 1
 Exclusivity_1_7: X1_7 + X7_1 = 1
 Exclusivity_1_8: X1_8 + X8_1 = 1
 Exclusivity_1_9: X1_9 + X9_1 = 1
 Exclusivity_2_1: X1_2 + X2_1 = 1
 Exclusivity_2_3: X2_3 + X3_2 = 1
 Exclusivity_2_4: X2_4 + X4_2 = 1
 Exclusivity_2_5: X2_5 + X5_2 = 1
 Exclusivity_2_6: X2_6 + X6_2 = 1
 Exclusivity_2_7: X2_7 + X7_2 = 1
 Exclusivity_2_8: X2_8 + X8_2 = 1
 Exclusivity_2_9: X2_9 + X9_2 = 1
 Exclusivity_3_1: X1_3 + X3_1 = 1
 Exclusivity_3_2: X2_3 + X3_2 = 1
 Exclusivity_3_4: X3_4 + X4_3 = 1
 Exclusivity_3_5: X3_5 + X5_3 = 1
 Exclusivity_3_6: X3_6 + X6_3 = 1
 Exclusivity_3_7: X3_7 + X7_3 = 1
 Exclusivity_3_8: X3_8 + X8_3 = 1
 Exclusivity_3_9: X3_9 + X9_3 = 1
 Exclusivity_4_1: X1_4 + X4_1 = 1
 Exclusivity_4_2: X2_4 + X4_2 = 1
 Exclusivity_4_3: X3_4 + X4_3 = 1
 Exclusivity_4_5: X4_5 + X5_4 = 1
 Exclusivity_4_6: X4_6 + X6_4 = 1
 Exclusivity_4_7: X4_7 + X7_4 = 1
 Exclusivity_4_8: X4_8 + X8_4 = 1
 Exclusivity_4_9: X4_9 + X9_4 = 1
 Exclusivity_5_1: X1_5 + X5_1 = 1
 Exclusivity_5_2: X2_5 + X5_2 = 1
 Exclusivity_5_3: X3_5 + X5_3 = 1
 Exclusivity_5_4: X4_5 + X5_4 = 1
 Exclusivity_5_6: X5_6 + X6_5 = 1
 Exclusivity_5_7: X5_7 + X7_5 = 1
 Exclusivity_5_8: X5_8 + X8_5 = 1
 Exclusivity_5_9: X5_9 + X9_5 = 1
 Exclusivity_6_1: X1_6 + X6_1 = 1
 Exclusivity_6_2: X2_6 + X6_2 = 1
 Exclusivity_6_3: X3_6 + X6_3 = 1
 Exclusivity_6_4: X4_6 + X6_4 = 1
 Exclusivity_6_5: X5_6 + X6_5 = 1
 Exclusivity_6_7: X6_7 + X7_6 = 1
 Exclusivity_6_8: X6_8 + X8_6 = 1
 Exclusivity_6_9: X6_9 + X9_6 = 1
 Exclusivity_7_1: X1_7 + X7_1 = 1
 Exclusivity_7_2: X2_7 + X7_2 = 1
 Exclusivity_7_3: X3_7 + X7_3 = 1
 Exclusivity_7_4: X4_7 + X7_4 = 1
 Exclusivity_7_5: X5_7 + X7_5 = 1
 Exclusivity_7_6: X6_7 + X7_6 = 1
 Exclusivity_7_8: X7_8 + X8_7 = 1
 Exclusivity_7_9: X7_9 + X9_7 = 1
 Exclusivity_8_1: X1_8 + X8_1 = 1
 Exclusivity_8_2: X2_8 + X8_2 = 1
 Exclusivity_8_3: X3_8 + X8_3 = 1
 Exclusivity_8_4: X4_8 + X8_4 = 1
 Exclusivity_8_5: X5_8 + X8_5 = 1
 Exclusivity_8_6: X6_8 + X8_6 = 1
 Exclusivity_8_7: X7_8 + X8_7 = 1
 Exclusivity_8_9: X8_9 + X9_8 = 1
 Exclusivity_9_1: X1_9 + X9_1 = 1
 Exclusivity_9_2: X2_9 + X9_2 = 1
 Exclusivity_9_3: X3_9 + X9_3 = 1
 Exclusivity_9_4: X4_9 + X9_4 = 1
 Exclusivity_9_5: X5_9 + X9_5 = 1
 Exclusivity_9_6: X6_9 + X9_6 = 1
 Exclusivity_9_7: X7_9 + X9_7 = 1
 Exclusivity_9_8: X8_9 + X9_8 = 1
 1_2_3_loopfree: X1_2 + X2_3 + X3_1 <= 2
 2_1_3_loopfree: X1_3 + X2_1 + X3_2 <= 2
 1_2_4_loopfree: X1_2 + X2_4 + X4_1 <= 2
 2_1_4_loopfree: X1_4 + X2_1 + X4_2 <= 2
 1_2_5_loopfree: X1_2 + X2_5 + X5_1 <= 2
 2_1_5_loopfree: X1_5 + X2_1 + X5_2 <= 2
 1_2_6_loopfree: X1_2 + X2_6 + X6_1 <= 2
 2_1_6_loopfree: X1_6 + X2_1 + X6_2 <= 2
 1_2_7_loopfree: X1_2 + X2_7 + X7_1 <= 2
 2_1_7_loopfree: X1_7 + X2_1 + X7_2 <= 2
 1_2_8_loopfree: X1_2 + X2_8 + X8_1 <= 2
 2_1_8_loopfree: X1_8 + X2_1 + X8_2 <= 2
 1_2_9_loopfree: X1_2 + X2_9 + X9_1 <= 2
 2_1_9_loopfree: X1_9 + X2_1 + X9_2 <= 2
 1_3_4_loopfree: X1_3 + X3_4 + X4_1 <= 2
 3_1_4_loopfree: X1_4 + X3_1 + X4_3 <= 2
 1_3_5_loopfree: X1_3 + X3_5 + X5_1 <= 2
 3_1_5_loopfree: X1_5 + X3_1 + X5_3 <= 2
 1_3_6_loopfree: X1_3 + X3_6 + X6_1 <= 2
 3_1_6_loopfree: X1_6 + X3_1 + X6_3 <= 2
 1_3_7_loopfree: X1_3 + X3_7 + X7_1 <= 2
 3_1_7_loopfree: X1_7 + X3_1 + X7_3 <= 2
 1_3_8_loopfree: X1_3 + X3_8 + X8_1 <= 2
 3_1_8_loopfree: X1_8 + X3_1 + X8_3 <= 2
 1_3_9_loopfree: X1_3 + X3_9 + X9_1 <= 2
 3_1_9_loopfree: X1_9 + X3_1 + X9_3 <= 2
 1_4_5_loopfree: X1_4 + X4_5 + X5_1 <= 2
 4_1_5_loopfree: X1_5 + X4_1 + X5_4 <= 2
 1_4_6_loopfree: X1_4 + X4_6 + X6_1 <= 2
 4_1_6_loopfree: X1_6 + X4_1 + X6_4 <= 2
 1_4_7_loopfree: X1_4 + X4_7 + X7_1 <= 2
 4_1_7_loopfree: X1_7 + X4_1 + X7_4 <= 2
 1_4_8_loopfree: X1_4 + X4_8 + X8_1 <= 2
 4_1_8_loopfree: X1_8 + X4_1 + X8_4 <= 2
 1_4_9_loopfree: X1_4 + X4_9 + X9_1 <= 2
 4_1_9_loopfree: X1_9 + X4_1 + X9_4 <= 2
 1_5_6_loopfree: X1_5 + X5_6 + X6_1 <= 2
 5_1_6_loopfree: X1_6 + X5_1 + X6_5 <= 2
 1_5_7_loopfree: X1_5 + X5_7 + X7_1 <= 2
 5_1_7_loopfree: X1_7 + X5_1 + X7_5 <= 2
 1_5_8_loopfree: X1_5 + X5_8 + X8_1 <= 2
 5_1_8_loopfree: X1_8 + X5_1 + X8_5 <= 2
 1_5_9_loopfree: X1_5 + X5_9 + X9_1 <= 2
 5_1_9_loopfree: X1_9 + X5_1 + X9_5 <= 2
 1_6_7_loopfree: X1_6 + X6_7 + X7_1 <= 2
 6_1_7_loopfree: X1_7 + X6_1 + X7_6 <= 2
 1_6_8_loopfree: X1_6 + X6_8 + X8_1 <= 2
 6_1_8_loopfree: X1_8 + X6_1 + X8_6 <= 2
 1_6_9_loopfree: X1_6 + X6_9 + X9_1 <= 2
 6_1_9_loopfree: X1_9 + X6_1 + X9_6 <= 2
 1_7_8_loopfree: X1_7 + X7_8 + X8_1 <= 2
 7_1_8_loopfree: X1_8 + X7_1 + X8_7 <= 2
 1_7_9_loopfree: X1_7 + X7_9 + X9_1 <= 2
 7_1_9_loopfree: X1_9 + X7_1 + X9_7 <= 2
 1_8_9_loopfree: X1_8 + X8_9 + X9_1 <= 2
 8_1_9_loopfree: X1_9 + X8_1 + X9_8 <= 2
 2_3_4_loopfree: X2_3 + X3_4 + X4_2 <= 2
 3_2_4_loopfree: X2_4 + X3_2 + X4_3 <= 2
 2_3_5_loopfree: X2_3 + X3_5 + X5_2 <= 2
 3_2_5_loopfree: X2_5 + X3_2 + X5_3 <= 2
 2_3_6_loopfree: X2_3 + X3_6 + X6_2 <= 2
 3_2_6_loopfree: X2_6 + X3_2 + X6_3 <= 2
 2_3_7_loopfree: X2_3 + X3_7 + X7_2 <= 2
 3_2_7_loopfree: X2_7 + X3_2 + X7_3 <= 2
 2_3_8_loopfree: X2_3 + X3_8 + X8_2 <= 2
 3_2_8_loopfree: X2_8 + X3_2 + X8_3 <= 2
 2_3_9_loopfree: X2_3 + X3_9 + X9_2 <= 2
 3_2_9_loopfree: X2_9 + X3_2 + X9_3 <= 2
 2_4_5_loopfree: X2_4 + X4_5 + X5_2 <= 2
 4_2_5_loopfree: X2_5 + X4_2 + X5_4 <= 2
 2_4_6_loopfree: X2_4 + X4_6 + X6_2 <= 2
 4_2_6_loopfree: X2_6 + X4_2 + X6_4 <= 2
 2_4_7_loopfree: X2_4 + X4_7 + X7_2 <= 2
 4_2_7_loopfree: X2_7 + X4_2 + X7_4 <= 2
 2_4_8_loopfree: X2_4 + X4_8 + X8_2 <= 2
 4_2_8_loopfree: X2_8 + X4_2 + X8_4 <= 2
 2_4_9_loopfree: X2_4 + X4_9 + X9_2 <= 2
 4_2_9_loopfree: X2_9 + X4_2 + X9_4 <= 2
 2_5_6_loopfree: X2_5 + X5_6 + X6_2 <= 2
 5_2_6_loopfree: X2_6 + X5_2 + X6_5 <= 2
 2_5_7_loopfree: X2_5 + X5_7 + X7_2 <= 2
 5_2_7_loopfree: X2_7 + X5_2 + X7_5 <= 2
 2_5_8_loopfree: X2_5 + X5_8 + X8_2 <= 2
 5_2_8_loopfree: X2_8 + X5_2 + X8_5 <= 2
 2_5_9_loopfree: X2_5 + X5_9 + X9_2 <= 2
 5_2_9_loopfree: X2_9 + X5_2 + X9_5 <= 2
 2_6_7_loopfree: X2_6 + X6_7 + X7_2 <= 2
 6_2_7_loopfree: X2_7 + X6_2 + X7_6 <= 2
 2_6_8_loopfree: X2_6 + X6_8 + X8_2 <= 2
 6_2_8_loopfree: X2_8 + X6_2 + X8_6 <= 2
 2_6_9_loopfree: X2_6 + X6_9 + X9_2 <= 2
 6_2_9_loopfree: X2_9 + X6_2 + X9_6 <= 2
 2_7_8_loopfree: X2_7 + X7_8 + X8_2 <= 2
 7_2_8_loopfree: X2_8 + X7_2 + X8_7 <= 2
 2_7_9_loopfree: X2_7 + X7_9 + X9_2 <= 2
 7_2_9_loopfree: X2_9 + X7_2 + X9_7 <= 2
 2_8_9_loopfree: X2_8 + X8_9 + X9_2 <= 2
 8_2_9_loopfree: X2_9 + X8_2 + X9_8 <= 2
 3_4_5_loopfree: X3_4 + X4_5 + X5_3 <= 2
 4_3_5_loopfree: X3_5 + X4_3 + X5_4 <= 2
 3_4_6_loopfree: X3_4 + X4_6 + X6_3 <= 2
 4_3_6_loopfree: X3_6 + X4_3 + X6_4 <= 2
 3_4_7_loopfree: X3_4 + X4_7 + X7_3 <= 2
 4_3_7_loopfree: X3_7 + X4_3 + X7_4 <= 2
 3_4_8_loopfree: X3_4 + X4_8 + X8_3 <= 2
 4_3_8_loopfree: X3_8 + X4_3 + X8_4 <= 2
 3_4_9_loopfree: X3_4 + X4_9 + X9_3 <= 2
 4_3_9_loopfree: X3_9 + X4_3 + X9_4 <= 2
 3_5_6_loopfree: X3_5 + X5_6 + X6_3 <= 2
 5_3_6_loopfree: X3_6 + X5_3 + X6_5 <= 2
 3_5_7_loopfree: X3_5 + X5_7 + X7_3 <= 2
 5_3_7_loopfree: X3_7 + X5_3 + X7_5 <= 2
 3_5_8_loopfree: X3_5 + X5_8 + X8_3 <= 2
 5_3_8_loopfree: X3_8 + X5_3 + X8_5 <= 2
 3_5_9_loopfree: X3_5 + X5_9 + X9_3 <= 2
 5_3_9_loopfree: X3_9 + X5_3 + X9_5 <= 2
 3_6_7_loopfree: X3_6 + X6_7 + X7_3 <= 2
 6_3_7_loopfree: X3_7 + X6_3 + X7_6 <= 2
 3_6_8_loopfree: X3_6 + X6_8 + X8_3 <= 2
 6_3_8_loopfree: X3_8 + X6_3 + X8_6 <= 2
 3_6_9_loopfree: X3_6 + X6_9 + X9_3 <= 2
 6_3_9_loopfree: X3_9 + X6_3 + X9_6 <= 2
 3_7_8_loopfree: X3_7 + X7_8 + X8_3 <= 2
 7_3_8_loopfree: X3_8 + X7_3 + X8_7 <= 2
 3_7_9_loopfree: X3_7 + X7_9 + X9_3 <= 2
 7_3_9_loopfree: X3_9 + X7_3 + X9_7 <= 2
 3_8_9_loopfree: X3_8 + X8_9 + X9_3 <= 2
 8_3_9_loopfree: X3_9 + X8_3 + X9_8 <= 2
 4_5_6_loopfree: X4_5 + X5_6 + X6_4 <= 2
 5_4_6_loopfree: X4_6 + X5_4 + X6_5 <= 2
 4_5_7_loopfree: X4_5 + X5_7 + X7_4 <= 2
 5_4_7_loopfree: X4_7 + X5_4 + X7_5 <= 2
 4_5_8_loopfree: X4_5 + X5_8 + X8_4 <= 2
 5_4_8_loopfree: X4_8 + X5_4 + X8_5 <= 2
 4_5_9_loopfree: X4_5 + X5_9 + X9_4 <= 2
 5_4_9_loopfree: X4_9 + X5_4 + X9_5 <= 2
 4_6_7_loopfree: X4_6 + X6_7 + X7_4 <= 2
 6_4_7_loopfree: X4_7 + X6_4 + X7_6 <= 2
 4_6_8_loopfree: X4_6 + X6_8 + X8_4 <= 2
 6_4_8_loopfree: X4_8 + X6_4 + X8_6 <= 2
 4_6_9_loopfree: X4_6 + X6_9 + X9_4 <= 2
 6_4_9_loopfree: X4_9 + X6_4 + X9_6 <= 2
 4_7_8_loopfree: X4_7 + X7_8 + X8_4 <= 2
 7_4_8_loopfree: X4_8 + X7_4 + X8_7 <= 2
 4_7_9_loopfree: X4_7 + X7_9 + X9_4 <= 2
 7_4_9_loopfree: X4_9 + X7_4 + X9_7 <= 2
 4_8_9_loopfree: X4_8 + X8_9 + X9_4 <= 2
 8_4_9_loopfree: X4_9 + X8_4 + X9_8 <= 2
 5_6_7_loopfree: X5_6 + X6_7 + X7_5 <= 2
 6_5_7_loopfree: X5_7 + X6_5 + X7_6 <= 2
 5_6_8_loopfree: X5_6 + X6_8 + X8_5 <= 2
 6_5_8_loopfree: X5_8 + X6_5 + X8_6 <= 2
 5_6_9_loopfree: X5_6 + X6_9 + X9_5 <= 2
 6_5_9_loopfree: X5_9 + X6_5 + X9_6 <= 2
 5_7_8_loopfree: X5_7 + X7_8 + X8_5 <= 2
 7_5_8_loopfree: X5_8 + X7_5 + X8_7 <= 2
 5_7_9_loopfree: X5_7 + X7_9 + X9_5 <= 2
 7_5_9_loopfree: X5_9 + X7_5 + X9_7 <= 2
 5_8_9_loopfree: X5_8 + X8_9 + X9_5 <= 2
 8_5_9_loopfree: X5_9 + X8_5 + X9_8 <= 2
 6_7_8_loopfree: X6_7 + X7_8 + X8_6 <= 2
 7_6_8_loopfree: X6_8 + X7_6 + X8_7 <= 2
 6_7_9_loopfree: X6_7 + X7_9 + X9_6 <= 2
 7_6_9_loopfree: X6_9 + X7_6 + X9_7 <= 2
 6_8_9_loopfree: X6_8 + X8_9 + X9_6 <= 2
 8_6_9_loopfree: X6_9 + X8_6 + X9_8 <= 2
 7_8_9_loopfree: X7_8 + X8_9 + X9_7 <= 2
 8_7_9_loopfree: X7_9 + X8_7 + X9_8 <= 2
 s1_t2_s_than_j: X1_6 = 1
 s1_t4_s_than_j: X1_8 = 1
 s2_t1_s_than_j: X2_5 = 1
 s2_t2_s_than_j: X2_6 = 1
 s2_t5_s_than_j: X2_9 = 1
 s3_t1_s_than_j: X3_5 = 1
 s3_t4_s_than_j: X3_8 = 1
 s4_t3_s_than_j: X4_7 = 1
 s4_t5_s_than_j: X4_9 = 1
 C_1: C1 - 4 X2_1 - 3 X3_1 - 2 X4_1 - 5 X5_1 - 3 X6_1 - 6 X7_1 - 2 X8_1
   - 7 X9_1 >= 2
 C_2: C2 - 2 X1_2 - 3 X3_2 - 2 X4_2 - 5 X5_2 - 3 X6_2 - 6 X7_2 - 2 X8_2
   - 7 X9_2 >= 4
 C_3: C3 - 2 X1_3 - 4 X2_3 - 2 X4_3 - 5 X5_3 - 3 X6_3 - 6 X7_3 - 2 X8_3
   - 7 X9_3 >= 3
 C_4: C4 - 2 X1_4 - 4 X2_4 - 3 X3_4 - 5 X5_4 - 3 X6_4 - 6 X7_4 - 2 X8_4
   - 7 X9_4 >= 2
 C_5: C5 - 2 X1_5 - 4 X2_5 - 3 X3_5 - 2 X4_5 - 3 X6_5 - 6 X7_5 - 2 X8_5
   - 7 X9_5 >= 5
 C_6: C6 - 2 X1_6 - 4 X2_6 - 3 X3_6 - 2 X4_6 - 5 X5_6 - 6 X7_6 - 2 X8_6
   - 7 X9_6 >= 3
 C_7: C7 - 2 X1_7 - 4 X2_7 - 3 X3_7 - 2 X4_7 - 5 X5_7 - 3 X6_7 - 2 X8_7
   - 7 X9_7 >= 6
 C_8: C8 - 2 X1_8 - 4 X2_8 - 3 X3_8 - 2 X4_8 - 5 X5_8 - 3 X6_8 - 6 X7_8
   - 7 X9_8 >= 2
 C_9: C9 - 2 X1_9 - 4 X2_9 - 3 X3_9 - 2 X4_9 - 5 X5_9 - 3 X6_9 - 6 X7_9
   - 2 X8_9 >= 7
Bounds
Binaries
 X1_1 X1_2 X1_3 X1_4 X1_5 X1_6 X1_7 X1_8 X1_9 X2_1 X2_2 X2_3 X2_4 X2_5 X2_6
 X2_7 X2_8 X2_9 X3_1 X3_2 X3_3 X3_4 X3_5 X3_6 X3_7 X3_8 X3_9 X4_1 X4_2 X4_3
 X4_4 X4_5 X4_6 X4_7 X4_8 X4_9 X5_1 X5_2 X5_3 X5_4 X5_5 X5_6 X5_7 X5_8 X5_9
 X6_1 X6_2 X6_3 X6_4 X6_5 X6_6 X6_7 X6_8 X6_9 X7_1 X7_2 X7_3 X7_4 X7_5 X7_6
 X7_7 X7_8 X7_9 X8_1 X8_2 X8_3 X8_4 X8_5 X8_6 X8_7 X8_8 X8_9 X9_1 X9_2 X9_3
 X9_4 X9_5 X9_6 X9_7 X9_8 X9_9
Generals
 C1 C2 C3 C4 C5 C6 C7 C8 C9
End
